This is Ipopt version 3.14.14, running with linear solver MUMPS 5.6.2.

Number of nonzeros in equality constraint Jacobian...:        0
Number of nonzeros in inequality constraint Jacobian.:        4
Number of nonzeros in Lagrangian Hessian.............:        0

Total number of variables............................:        2
                     variables with only lower bounds:        0
                variables with lower and upper bounds:        0
                     variables with only upper bounds:        0
Total number of equality constraints.................:        0
Total number of inequality constraints...............:        2
        inequality constraints with only lower bounds:        0
   inequality constraints with lower and upper bounds:        0
        inequality constraints with only upper bounds:        2

iter    objective    inf_pr   inf_du lg(mu)  ||d||  lg(rg) alpha_du alpha_pr  ls
   0  2.1000000e+00 0.00e+00 1.10e+00   0.0 0.00e+00    -  0.00e+00 0.00e+00   0
   1  1.6109912e+00 0.00e+00 6.01e+01   0.1 1.24e+00    -  9.81e-01 4.95e-01f  2
   2  6.2081131e-01 0.00e+00 1.00e+00  -2.0 1.00e+00    -  1.00e+00 9.90e-01f  1
   3 -3.6938687e-01 0.00e+00 1.00e+00  -4.6 1.00e+00    -  1.00e+00 9.90e-01f  1
   4 -1.3693866e+00 0.00e+00 1.00e+00 -10.4 1.00e+00    -  1.00e+00 1.00e+00f  1
   5 -3.4628529e+00 1.60e+00 1.21e+02  -7.9 7.71e+05    -  1.00e+00 2.71e-06f  1
   6 -2.6939252e+00 1.77e-01 2.22e-01  -3.8 7.69e-01    -  1.00e+00 1.00e+00h  1
   7 -2.5843132e+00 3.60e-03 1.03e-02  -4.5 1.10e-01    -  1.00e+00 1.00e+00h  1
   8 -2.5819898e+00 1.43e-06 1.01e-05  -6.9 2.32e-03    -  1.00e+00 1.00e+00h  1
   9 -2.5819889e+00 0.00e+00 5.10e-10 -11.0 9.20e-07    -  1.00e+00 1.00e+00h  1

Number of Iterations....: 9

                                   (scaled)                 (unscaled)
Objective...............:  -2.5819889039180461e+00   -2.5819889039180461e+00
Dual infeasibility......:   5.0980009103085422e-10    5.0980009103085422e-10
Constraint violation....:   0.0000000000000000e+00    0.0000000000000000e+00
Variable bound violation:   0.0000000000000000e+00    0.0000000000000000e+00
Complementarity.........:   1.0000000000012221e-11    1.0000000000012221e-11
Overall NLP error.......:   5.0980009103085422e-10    5.0980009103085422e-10


Number of objective function evaluations             = 15
Number of objective gradient evaluations             = 10
Number of equality constraint evaluations            = 0
Number of inequality constraint evaluations          = 15
Number of equality constraint Jacobian evaluations   = 0
Number of inequality constraint Jacobian evaluations = 10
Number of Lagrangian Hessian evaluations             = 0
Total seconds in IPOPT                               = 0.260

EXIT: Optimal Solution Found.
